<number of tasks>
20

<cycle time>
1000

<order strength>
0,174


<task times>
1 129
2 243
3 30
4 23
5 121
6 102
7 182
8 234
9 173
10 267
11 229
12 38
13 278
14 166
15 77
16 128
17 112
18 170
19 168
20 70

<precedence relations>
1,5
3,6
3,7
3,8
3,9
4,10
5,13
5,14
6,11
7,15
9,12
11,16
11,17
13,18
16,19
17,20

<end>
